* #variable= 66 #constraint= 1 #product= 120 sizeproduct= 240
min: +2 x1 x16 -2 x1 -4 x16 +2 x1 x48 +2 x1 x49 -2 x1 x54 +2 x2 x4 -2 x2 -2 x4 +2 x2 x45 -4 x45 +2 x3 x8 -2 x3 -4 x8 +2 x3 x38 -2 x38 -2 x3 x50 +2 x3 x60 +2 x4 x5 -2 x5 +2 x4 x10 -4 x10 -2 x4 x61 +2 x5 x11 -4 x11 +2 x6 x7 -2 x6 -2 x7 +2 x6 x13 -2 x13 +2 x7 x8 +2 x7 x22 -2 x22 -2 x7 x63 +2 x8 x9 -4 x9 +2 x8 x52 +2 x9 x25 +2 x25 +2 x9 x36 -2 x36 +2 x9 x50 +2 x10 x20 -4 x20 +2 x10 x30 -2 x30 +2 x10 x62 +2 x11 x12 -2 x12 +2 x11 x19 -4 x19 +2 x11 x61 +2 x12 x20 +2 x13 x36 +2 x13 x55 -2 x13 x58 +2 x14 x36 +2 x14 -2 x14 x55 -2 x14 x60 -2 x14 x64 +2 x15 x16 +2 x15 -2 x15 x23 -2 x23 -2 x15 x56 -2 x15 x65 +2 x16 x17 -2 x17 +2 x16 x38 +2 x17 x18 -4 x18 +2 x17 x27 -2 x27 -2 x17 x62 +2 x18 x19 +2 x18 x41 -2 x41 +2 x18 x61 +2 x19 x32 -4 x32 +2 x19 x42 -2 x42 +2 x20 x21 -2 x21 +2 x20 x31 -2 x31 +2 x21 x32 +2 x22 x23 +2 x22 x24 -2 x24 -2 x22 x57 +2 x23 x26 -2 x26 +2 x23 x58 +2 x24 x26 +2 x24 x38 -2 x24 x66 -2 x25 x27 -2 x25 x37 -2 x37 -2 x25 x59 +2 x26 x27 -2 x26 x54 +2 x27 x29 -4 x29 -2 x28 x30 -2 x28 +2 x28 x49 +2 x28 x56 +2 x28 x59 +2 x29 x30 +2 x29 x40 -2 x40 +2 x29 x62 +2 x30 x31 +2 x31 x44 -2 x44 -2 x31 x49 +2 x32 x33 -2 x33 +2 x32 x43 -2 x43 +2 x33 x44 -2 x34 x52 +2 x34 -2 x34 x57 -2 x35 x53 +2 x35 -2 x35 x58 +2 x35 x64 -2 x35 x66 -2 x36 x65 +2 x37 x39 -4 x39 +2 x37 x58 +2 x37 x60 -2 x38 x40 +2 x39 x40 +2 x39 x54 +2 x39 x65 +2 x40 x41 +2 x41 x42 -2 x41 x59 +2 x42 x43 -2 x42 x51 +2 x43 x45 -2 x43 x48 +2 x44 x46 -2 x46 -2 x44 x47 +2 x45 x46 +2 x45 x47 +2 x47 x48 -2 x47 x49 -2 x48 x51 -2 x50 x56 +2 x50 x59 +2 x51 x54 +2 x51 x56 +2 x52 x53 -2 x52 x60 +2 x57 x63 +2 x57 x66 -2 x61 x62 +2 x65 x66 ;
+1 x1 >= 0 ;
